c Modular CNF with 4 modules
c Generated CNF instance
p cnf 40 640
2 1 5 0
2 1 -5 0
2 -1 5 0
-2 1 5 0
4 10 3 0
4 10 -3 0
4 -10 3 0
-4 10 3 0
2 9 10 0
2 9 -10 0
2 -9 10 0
-2 9 10 0
10 7 1 0
10 7 -1 0
10 -7 1 0
-10 7 1 0
1 2 4 0
1 2 -4 0
1 -2 4 0
-1 2 4 0
4 9 1 0
4 9 -1 0
4 -9 1 0
-4 9 1 0
9 4 7 0
9 4 -7 0
9 -4 7 0
-9 4 7 0
4 8 5 0
4 8 -5 0
4 -8 5 0
-4 8 5 0
1 3 7 0
1 3 -7 0
1 -3 7 0
-1 3 7 0
6 5 3 0
6 5 -3 0
6 -5 3 0
-6 5 3 0
4 6 2 0
4 6 -2 0
4 -6 2 0
-4 6 2 0
2 7 10 0
2 7 -10 0
2 -7 10 0
-2 7 10 0
6 10 5 0
6 10 -5 0
6 -10 5 0
-6 10 5 0
1 8 2 0
1 8 -2 0
1 -8 2 0
-1 8 2 0
7 2 5 0
7 2 -5 0
7 -2 5 0
-7 2 5 0
10 6 4 0
10 6 -4 0
10 -6 4 0
-10 6 4 0
2 1 4 0
2 1 -4 0
2 -1 4 0
-2 1 4 0
5 2 4 0
5 2 -4 0
5 -2 4 0
-5 2 4 0
2 7 5 0
2 7 -5 0
2 -7 5 0
-2 7 5 0
8 6 3 0
8 6 -3 0
8 -6 3 0
-8 6 3 0
6 10 4 0
6 10 -4 0
6 -10 4 0
-6 10 4 0
5 2 3 0
5 2 -3 0
5 -2 3 0
-5 2 3 0
9 4 3 0
9 4 -3 0
9 -4 3 0
-9 4 3 0
8 7 5 0
8 7 -5 0
8 -7 5 0
-8 7 5 0
9 4 6 0
9 4 -6 0
9 -4 6 0
-9 4 6 0
1 4 10 0
1 4 -10 0
1 -4 10 0
-1 4 10 0
6 7 5 0
6 7 -5 0
6 -7 5 0
-6 7 5 0
2 4 6 0
2 4 -6 0
2 -4 6 0
-2 4 6 0
4 8 7 0
4 8 -7 0
4 -8 7 0
-4 8 7 0
8 3 5 0
8 3 -5 0
8 -3 5 0
-8 3 5 0
3 4 5 0
3 4 -5 0
3 -4 5 0
-3 4 5 0
10 7 9 0
10 7 -9 0
10 -7 9 0
-10 7 9 0
6 4 3 0
6 4 -3 0
6 -4 3 0
-6 4 3 0
9 8 2 0
9 8 -2 0
9 -8 2 0
-9 8 2 0
1 2 3 0
1 2 -3 0
1 -2 3 0
-1 2 3 0
3 7 2 0
3 7 -2 0
3 -7 2 0
-3 7 2 0
7 10 8 0
7 10 -8 0
7 -10 8 0
-7 10 8 0
9 5 1 0
9 5 -1 0
9 -5 1 0
-9 5 1 0
2 9 5 0
2 9 -5 0
2 -9 5 0
-2 9 5 0
6 2 5 0
6 2 -5 0
6 -2 5 0
-6 2 5 0
17 13 18 0
17 13 -18 0
17 -13 18 0
-17 13 18 0
11 15 13 0
11 15 -13 0
11 -15 13 0
-11 15 13 0
19 12 15 0
19 12 -15 0
19 -12 15 0
-19 12 15 0
19 14 13 0
19 14 -13 0
19 -14 13 0
-19 14 13 0
16 13 11 0
16 13 -11 0
16 -13 11 0
-16 13 11 0
20 16 18 0
20 16 -18 0
20 -16 18 0
-20 16 18 0
11 12 16 0
11 12 -16 0
11 -12 16 0
-11 12 16 0
15 14 11 0
15 14 -11 0
15 -14 11 0
-15 14 11 0
14 12 19 0
14 12 -19 0
14 -12 19 0
-14 12 19 0
18 12 13 0
18 12 -13 0
18 -12 13 0
-18 12 13 0
13 18 20 0
13 18 -20 0
13 -18 20 0
-13 18 20 0
15 19 17 0
15 19 -17 0
15 -19 17 0
-15 19 17 0
14 19 20 0
14 19 -20 0
14 -19 20 0
-14 19 20 0
15 17 16 0
15 17 -16 0
15 -17 16 0
-15 17 16 0
18 19 20 0
18 19 -20 0
18 -19 20 0
-18 19 20 0
12 14 19 0
12 14 -19 0
12 -14 19 0
-12 14 19 0
12 16 11 0
12 16 -11 0
12 -16 11 0
-12 16 11 0
20 19 14 0
20 19 -14 0
20 -19 14 0
-20 19 14 0
20 14 11 0
20 14 -11 0
20 -14 11 0
-20 14 11 0
12 11 14 0
12 11 -14 0
12 -11 14 0
-12 11 14 0
12 11 16 0
12 11 -16 0
12 -11 16 0
-12 11 16 0
12 19 14 0
12 19 -14 0
12 -19 14 0
-12 19 14 0
15 18 14 0
15 18 -14 0
15 -18 14 0
-15 18 14 0
19 13 18 0
19 13 -18 0
19 -13 18 0
-19 13 18 0
14 18 17 0
14 18 -17 0
14 -18 17 0
-14 18 17 0
14 12 19 0
14 12 -19 0
14 -12 19 0
-14 12 19 0
17 16 20 0
17 16 -20 0
17 -16 20 0
-17 16 20 0
17 18 11 0
17 18 -11 0
17 -18 11 0
-17 18 11 0
12 11 17 0
12 11 -17 0
12 -11 17 0
-12 11 17 0
16 12 14 0
16 12 -14 0
16 -12 14 0
-16 12 14 0
14 20 18 0
14 20 -18 0
14 -20 18 0
-14 20 18 0
13 17 20 0
13 17 -20 0
13 -17 20 0
-13 17 20 0
15 18 14 0
15 18 -14 0
15 -18 14 0
-15 18 14 0
12 18 20 0
12 18 -20 0
12 -18 20 0
-12 18 20 0
11 19 20 0
11 19 -20 0
11 -19 20 0
-11 19 20 0
12 14 13 0
12 14 -13 0
12 -14 13 0
-12 14 13 0
17 18 19 0
17 18 -19 0
17 -18 19 0
-17 18 19 0
14 17 11 0
14 17 -11 0
14 -17 11 0
-14 17 11 0
13 17 11 0
13 17 -11 0
13 -17 11 0
-13 17 11 0
17 15 18 0
17 15 -18 0
17 -15 18 0
-17 15 18 0
25 27 28 0
25 27 -28 0
25 -27 28 0
-25 27 28 0
23 24 25 0
23 24 -25 0
23 -24 25 0
-23 24 25 0
24 21 29 0
24 21 -29 0
24 -21 29 0
-24 21 29 0
26 21 29 0
26 21 -29 0
26 -21 29 0
-26 21 29 0
30 28 23 0
30 28 -23 0
30 -28 23 0
-30 28 23 0
21 29 22 0
21 29 -22 0
21 -29 22 0
-21 29 22 0
23 22 29 0
23 22 -29 0
23 -22 29 0
-23 22 29 0
24 27 22 0
24 27 -22 0
24 -27 22 0
-24 27 22 0
30 24 21 0
30 24 -21 0
30 -24 21 0
-30 24 21 0
30 22 27 0
30 22 -27 0
30 -22 27 0
-30 22 27 0
30 29 26 0
30 29 -26 0
30 -29 26 0
-30 29 26 0
25 24 26 0
25 24 -26 0
25 -24 26 0
-25 24 26 0
24 25 27 0
24 25 -27 0
24 -25 27 0
-24 25 27 0
23 25 28 0
23 25 -28 0
23 -25 28 0
-23 25 28 0
26 22 21 0
26 22 -21 0
26 -22 21 0
-26 22 21 0
28 22 29 0
28 22 -29 0
28 -22 29 0
-28 22 29 0
29 24 25 0
29 24 -25 0
29 -24 25 0
-29 24 25 0
23 26 22 0
23 26 -22 0
23 -26 22 0
-23 26 22 0
24 26 25 0
24 26 -25 0
24 -26 25 0
-24 26 25 0
23 28 25 0
23 28 -25 0
23 -28 25 0
-23 28 25 0
30 29 21 0
30 29 -21 0
30 -29 21 0
-30 29 21 0
29 25 22 0
29 25 -22 0
29 -25 22 0
-29 25 22 0
23 25 22 0
23 25 -22 0
23 -25 22 0
-23 25 22 0
22 29 23 0
22 29 -23 0
22 -29 23 0
-22 29 23 0
25 30 24 0
25 30 -24 0
25 -30 24 0
-25 30 24 0
26 24 25 0
26 24 -25 0
26 -24 25 0
-26 24 25 0
29 28 25 0
29 28 -25 0
29 -28 25 0
-29 28 25 0
21 22 27 0
21 22 -27 0
21 -22 27 0
-21 22 27 0
25 21 29 0
25 21 -29 0
25 -21 29 0
-25 21 29 0
26 23 25 0
26 23 -25 0
26 -23 25 0
-26 23 25 0
23 28 27 0
23 28 -27 0
23 -28 27 0
-23 28 27 0
29 21 22 0
29 21 -22 0
29 -21 22 0
-29 21 22 0
22 23 21 0
22 23 -21 0
22 -23 21 0
-22 23 21 0
26 29 23 0
26 29 -23 0
26 -29 23 0
-26 29 23 0
27 23 21 0
27 23 -21 0
27 -23 21 0
-27 23 21 0
25 26 21 0
25 26 -21 0
25 -26 21 0
-25 26 21 0
26 24 29 0
26 24 -29 0
26 -24 29 0
-26 24 29 0
22 26 27 0
22 26 -27 0
22 -26 27 0
-22 26 27 0
30 23 24 0
30 23 -24 0
30 -23 24 0
-30 23 24 0
23 30 27 0
23 30 -27 0
23 -30 27 0
-23 30 27 0
31 33 36 0
31 33 -36 0
31 -33 36 0
-31 33 36 0
37 34 35 0
37 34 -35 0
37 -34 35 0
-37 34 35 0
33 32 37 0
33 32 -37 0
33 -32 37 0
-33 32 37 0
31 38 34 0
31 38 -34 0
31 -38 34 0
-31 38 34 0
34 38 36 0
34 38 -36 0
34 -38 36 0
-34 38 36 0
35 34 39 0
35 34 -39 0
35 -34 39 0
-35 34 39 0
31 34 37 0
31 34 -37 0
31 -34 37 0
-31 34 37 0
36 35 32 0
36 35 -32 0
36 -35 32 0
-36 35 32 0
35 36 37 0
35 36 -37 0
35 -36 37 0
-35 36 37 0
39 36 31 0
39 36 -31 0
39 -36 31 0
-39 36 31 0
32 35 33 0
32 35 -33 0
32 -35 33 0
-32 35 33 0
40 35 31 0
40 35 -31 0
40 -35 31 0
-40 35 31 0
32 37 36 0
32 37 -36 0
32 -37 36 0
-32 37 36 0
36 37 32 0
36 37 -32 0
36 -37 32 0
-36 37 32 0
37 34 35 0
37 34 -35 0
37 -34 35 0
-37 34 35 0
31 37 40 0
31 37 -40 0
31 -37 40 0
-31 37 40 0
39 40 34 0
39 40 -34 0
39 -40 34 0
-39 40 34 0
36 37 32 0
36 37 -32 0
36 -37 32 0
-36 37 32 0
36 40 32 0
36 40 -32 0
36 -40 32 0
-36 40 32 0
35 39 40 0
35 39 -40 0
35 -39 40 0
-35 39 40 0
37 36 40 0
37 36 -40 0
37 -36 40 0
-37 36 40 0
35 39 33 0
35 39 -33 0
35 -39 33 0
-35 39 33 0
34 37 39 0
34 37 -39 0
34 -37 39 0
-34 37 39 0
33 35 37 0
33 35 -37 0
33 -35 37 0
-33 35 37 0
39 31 35 0
39 31 -35 0
39 -31 35 0
-39 31 35 0
35 34 37 0
35 34 -37 0
35 -34 37 0
-35 34 37 0
40 36 38 0
40 36 -38 0
40 -36 38 0
-40 36 38 0
38 40 34 0
38 40 -34 0
38 -40 34 0
-38 40 34 0
39 38 33 0
39 38 -33 0
39 -38 33 0
-39 38 33 0
32 35 36 0
32 35 -36 0
32 -35 36 0
-32 35 36 0
32 34 35 0
32 34 -35 0
32 -34 35 0
-32 34 35 0
34 40 33 0
34 40 -33 0
34 -40 33 0
-34 40 33 0
31 40 34 0
31 40 -34 0
31 -40 34 0
-31 40 34 0
38 32 40 0
38 32 -40 0
38 -32 40 0
-38 32 40 0
37 34 40 0
37 34 -40 0
37 -34 40 0
-37 34 40 0
38 37 34 0
38 37 -34 0
38 -37 34 0
-38 37 34 0
33 31 32 0
33 31 -32 0
33 -31 32 0
-33 31 32 0
37 34 33 0
37 34 -33 0
37 -34 33 0
-37 34 33 0
39 38 31 0
39 38 -31 0
39 -38 31 0
-39 38 31 0
39 34 32 0
39 34 -32 0
39 -34 32 0
-39 34 32 0
